<number of tasks>
50

<cycle time>
1000

<order strength>
0.198


<task times>
1 280
2 174
3 119
4 58
5 59
6 62
7 57
8 184
9 218
10 41
11 201
12 201
13 110
14 119
15 98
16 180
17 59
18 26
19 200
20 129
21 77
22 100
23 107
24 194
25 118
26 53
27 93
28 122
29 288
30 94
31 169
32 65
33 60
34 125
35 73
36 166
37 69
38 192
39 60
40 73
41 51
42 101
43 271
44 227
45 99
46 260
47 88
48 39
49 195
50 267

<precedence relations>
1,5
1,11
1,32
2,6
2,7
3,8
3,9
3,10
4,34
4,50
5,14
6,15
7,12
7,13
7,50
9,17
9,40
10,16
11,28
12,19
13,21
14,22
15,20
16,18
16,23
16,24
16,26
16,27
17,25
17,28
17,33
17,34
18,29
19,32
20,30
21,32
22,33
23,31
24,34
24,35
27,37
29,36
30,37
31,37
32,38
32,39
32,40
36,42
37,41
37,44
38,43
41,45
42,46
43,47
44,48
44,49
44,50

<end>
